17	4	3
13	14	13	13	24	1	11	
0	0	0	0	0	7	4	4	9	5	8	3	2	3	4
1	0	5	7	7	9	6	2	5	3	8	3	10	11	15
9	0	8	5	4	5	5	3	4	2	3	3	5	8	12
5	0	10	0	8	1	4	3	6	5	1	1	17
6	0	6	10	2	1	4	10	8	4	8	3	6	7	9
100	2	0	0	10	6	10	1	9	8	5	2	14	17
225	5	0	4	0	6	7	1	7	1	4	3	13	16	17
175	0	0	7	0	5	6	8	7	9	10	1	17
100	0	0	10	0	9	10	3	2	5	8	2	11	17
200	0	1	0	0	2	6	2	2	3	5	2	12	17
250	2	0	0	8	9	8	4	9	6	1	1	17
100	2	0	0	0	4	2	7	4	9	8	1	17
10	0	7	5	0	7	3	4	5	9	3	2	17	17
2	9	0	0	0	4	8	2	6	10	6	1	17
8	0	7	0	1	4	2	2	5	3	4	2	16	17
9	0	5	0	0	9	2	2	3	1	7	2	17	17
0	0	0	0	0	3	4	9	10	8	7	0
